SAT
79 65 21 -57 8 83 -2 88 92 -87 28 36 -7 73 38 -11 35 -46 -58 -67 24 34 -50 80 -97 -94 -61 84 1 47 70 95 19 -9 -78 -48 22 -17 -66 44 -60 -86 -42 54 59 -15 -12 4 63 -76 -43 23 -32 -30 -62 52 37 -13 -41 69 -14 -6 75 93 27 74 3 85 72 98 40 -5 -53 -81 -90 -25 31 -100 77 -91 68 45 96 -64 -99 71 -55 -26 20 56 -89 -16 -29 -39 -18 49 51 10 33 -82 0
